37603 41170 
38790 40598 
38819 40582 
39512 39941 
39608 39908 
39140 40478 
38932 40510 
40147 39390 
39467 40090 
39981 39555 
39779 39894 
40169 39265 
40569 38859 
40307 39129 
40215 39226 
39985 39544 
39500 39976 
40674 38655 
40393 39121 
40966 38394 
40915 38491 
40529 39009 
40791 38546 
39346 40128 
40159 39325 
40111 39420 
39998 39523 
39860 39722 
39960 39611 
39945 39694 
40282 39191 
39472 40004 
38694 40654 
39306 40278 
39321 40195 
40179 39256 
39572 39938 
40627 38745 
40086 39512 
38820 40530 
39354 40098 
38075 41058 
38435 40878 
38217 40970 
38666 40682 
38539 40728 
38662 40688 
37920 41132 
37362 41418 
38227 40910 
38085 40998 
37526 41196 
38317 40904 
38511 40756 
38507 40762 
37712 41164 
37207 41492 
37430 41254 
36999 41524 
37476 41208 
37530 41188 
36071 41677 
36226 41603 
36682 41602 
36181 41615 
